Translating instance to solver...

Set parameter TimeLimit to value 28800
Gurobi Optimizer version 11.0.2 build v11.0.2rc0 (linux64 - "Ubuntu 22.04.4 LTS")

CPU model: Intel(R) Xeon(R) Gold 5120 CPU @ 2.20GHz, instruction set [SSE2|AVX|AVX2|AVX512]
Thread count: 28 physical cores, 56 logical processors, using up to 28 threads

Academic license 2463511 - for non-commercial use only - registered to lu___@cefet-rj.br
Optimize a model with 61055 rows, 30653 columns and 140553 nonzeros
Model fingerprint: 0x7d46e671
Variable types: 1 continuous, 30652 integer (30600 binary)
Coefficient statistics:
  Matrix range     [1e+00, 1e+05]
  Objective range  [3e-01, 8e-01]
  Bounds range     [1e+00, 5e+01]
  RHS range        [1e+00, 7e+01]
Presolve removed 50892 rows and 26438 columns
Presolve time: 0.83s
Presolved: 10163 rows, 4215 columns, 30673 nonzeros
Variable types: 0 continuous, 4215 integer (4164 binary)

Root relaxation: objective 1.448998e+00, 1938 iterations, 0.07 seconds (0.09 work units)

    Nodes    |    Current Node    |     Objective Bounds      |     Work
 Expl Unexpl |  Obj  Depth IntInf | Incumbent    BestBd   Gap | It/Node Time

     0     0    1.44900    0  113          -    1.44900      -     -    1s
     0     0    1.65089    0  182          -    1.65089      -     -    2s
     0     0    1.67356    0  178          -    1.67356      -     -    2s
H    0     0                       2.5735640    1.67356  35.0%     -    2s
     0     0    1.67356    0  157    2.57356    1.67356  35.0%     -    2s
H    0     0                       2.2676730    1.67356  26.2%     -    2s
H    0     0                       1.8176730    1.67356  7.93%     -    2s
     0     0    1.67356    0  179    1.81767    1.67356  7.93%     -    2s
     0     0    1.67356    0  207    1.81767    1.67356  7.93%     -    3s
     0     0    1.67356    0  197    1.81767    1.67356  7.93%     -    3s
     0     0    1.67356    0   82    1.81767    1.67356  7.93%     -    4s
     0     0    1.67356    0  132    1.81767    1.67356  7.93%     -    4s
     0     0    1.67356    0  340    1.81767    1.67356  7.93%     -    6s
     0     0    1.67356    0  315    1.81767    1.67356  7.93%     -    6s
     0     0    1.67356    0  291    1.81767    1.67356  7.93%     -    7s
     0     0    1.67356    0   94    1.81767    1.67356  7.93%     -    8s
     0     0    1.67356    0  115    1.81767    1.67356  7.93%     -    9s
     0     0    1.67356    0  169    1.81767    1.67356  7.93%     -    9s
     0     0    1.67356    0  310    1.81767    1.67356  7.93%     -   10s
     0     0    1.67356    0  317    1.81767    1.67356  7.93%     -   11s
     0     0    1.67356    0  300    1.81767    1.67356  7.93%     -   11s
     0     0    1.67356    0  191    1.81767    1.67356  7.93%     -   11s
     0     0    1.67356    0  317    1.81767    1.67356  7.93%     -   12s
     0     0    1.67356    0   45    1.81767    1.67356  7.93%     -   12s
     0     0    1.67356    0  311    1.81767    1.67356  7.93%     -   13s
     0     0    1.67356    0   97    1.81767    1.67356  7.93%     -   13s
     0     0    1.67356    0  156    1.81767    1.67356  7.93%     -   14s
     0     0    1.67356    0   90    1.81767    1.67356  7.93%     -   15s
     0     0    1.67356    0   90    1.81767    1.67356  7.93%     -   16s
     0     2    1.67356    0   90    1.81767    1.67356  7.93%     -   18s
    11     2    1.67356    4  249    1.81767    1.67356  7.93%   719   20s

Cutting planes:
  Learned: 112
  Gomory: 2
  Implied bound: 179
  Clique: 2
  MIR: 120
  StrongCG: 2
  Zero half: 4
  RLT: 136
  Relax-and-lift: 33
  BQP: 124

Explored 26 nodes (92482 simplex iterations) in 22.03 seconds (20.23 work units)
Thread count was 28 (of 56 available processors)

Solution count 3: 1.81767 2.26767 2.57356 

Optimal solution found (tolerance 1.00e-04)
Best objective 1.817673000000e+00, best bound 1.817673000000e+00, gap 0.0000%

Solver Wallclock Time (for this epsilon): 22.03750705718994 s
Python wallclock Time (for this epsilon): 26.308263778686523 s


Total Elapsed Time (since program call): 257.9650809764862 s

Results:

I = 1.817673 mA
C = 70.0 points
C ~= 28.0 km^2

Minimum Epsilon for this instance = 10
Maximum Epsilon for this instance = 100

Current Epsilon = 70


Preprocessing Time (for this epsilon): 0.008472204208374023 s


Updated solution vectors:
sol_I = [-0.9176730000000001,-1.223564,-1.367673,-1.367673,-1.367673,-1.673564,-1.817673]
sol_C = [12.0,21.0,41.0,40.0,53.0,61.0,70.0]
sol_eps = [10,20,30,40,50,60,70]
sol_gap = [0.0,0.0,0.0,3.0374999981930273e-07,1.9124999717234914e-07,0.0,0.0]
